p edge 28 140
e 1 6
e 1 16
e 1 20
e 1 21
e 1 28
e 2 5
e 2 11
e 2 15
e 2 18
e 2 27
e 3 1
e 3 2
e 3 7
e 3 24
e 3 24
e 4 2
e 4 3
e 4 6
e 4 26
e 4 28
e 5 7
e 5 8
e 5 18
e 5 20
e 5 21
e 6 10
e 6 17
e 6 18
e 6 23
e 6 24
e 7 8
e 7 9
e 7 9
e 7 13
e 7 27
e 8 9
e 8 10
e 8 17
e 8 19
e 8 19
e 9 2
e 9 5
e 9 10
e 9 14
e 9 18
e 10 6
e 10 15
e 10 20
e 10 25
e 10 27
e 11 13
e 11 18
e 11 22
e 11 26
e 11 27
e 12 3
e 12 4
e 12 11
e 12 14
e 12 18
e 13 1
e 13 18
e 13 19
e 13 24
e 13 24
e 14 8
e 14 13
e 14 15
e 14 25
e 14 26
e 15 1
e 15 5
e 15 5
e 15 8
e 15 24
e 16 5
e 16 13
e 16 13
e 16 19
e 16 23
e 17 1
e 17 8
e 17 9
e 17 12
e 17 19
e 18 7
e 18 8
e 18 12
e 18 19
e 18 23
e 19 6
e 19 11
e 19 15
e 19 15
e 19 16
e 20 6
e 20 7
e 20 16
e 20 18
e 20 22
e 21 1
e 21 9
e 21 17
e 21 24
e 21 26
e 22 7
e 22 11
e 22 14
e 22 14
e 22 21
e 23 4
e 23 13
e 23 16
e 23 18
e 23 25
e 24 4
e 24 12
e 24 18
e 24 18
e 24 26
e 25 2
e 25 12
e 25 20
e 25 20
e 25 22
e 26 3
e 26 6
e 26 6
e 26 23
e 26 25
e 27 9
e 27 12
e 27 16
e 27 22
e 27 23
e 28 1
e 28 4
e 28 5
e 28 8
e 28 13
